10 10 4

0 384 418 166 176 257 463 181 292 166 
197 0 344 292 266 131 153 425 469 407 
498 245 0 257 410 186 306 492 170 150 
220 300 278 0 269 184 195 141 66 158 
103 404 400 427 0 100 244 425 73 325 
78 204 500 191 201 0 244 155 110 136 
411 309 463 267 479 263 0 495 454 153 
397 94 169 54 148 72 161 0 281 329 
111 205 108 142 233 262 141 131 0 170 
92 236 230 178 353 245 141 326 431 0 

85.3 0 3
85.3 1 8
85.3 2 6
85.3 3 7
85.3 4 3
85.3 5 1
85.3 6 1
85.3 7 0
85.3 8 6
85.3 9 7

